(declare-datatypes ((Str 0)) (((SNil_Str ) (SCons_Str (SCons_Str_0 Int) (SCons_Str_1 Str)))))
(declare-datatypes ((Rec_fetch__Array_Str_Str_ 0)) (((mk_Rec_fetch__Array_Str_Str_ (mk_Rec_fetch__Array_Str_Str__fetch (Array Str Str))))))
(declare-fun fn_str_append (Str Str) Str)
(declare-fun fn_str_len (Str) Int)
(assert (forall ((p0 Str) (p1 Str)) (! (= (fn_str_append p0 p1) (ite ((_ is SNil_Str) p0) p1 (SCons_Str (SCons_Str_0 p0) (fn_str_append (SCons_Str_1 p0) p1)))) :pattern ((fn_str_append p0 p1)))))
(assert (forall ((p0 Str)) (! (= (fn_str_len p0) (ite ((_ is SNil_Str) p0) 0 (+ 1 (fn_str_len (SCons_Str_1 p0))))) :pattern ((fn_str_len p0)))))
(assert (forall ((q0 Rec_fetch__Array_Str_Str_) (q1 Str)) (<= 8 (fn_str_len (fn_str_append (SCons_Str 72 (SCons_Str 101 (SCons_Str 108 (SCons_Str 108 (SCons_Str 111 (SCons_Str 44 (SCons_Str 32 SNil_Str))))))) (fn_str_append (select (mk_Rec_fetch__Array_Str_Str__fetch q0) q1) (SCons_Str 33 SNil_Str)))))))
(assert (forall ((q0 Rec_fetch__Array_Str_Str_) (q1 Str)) (= (fn_str_append (SCons_Str 72 (SCons_Str 101 (SCons_Str 108 (SCons_Str 108 (SCons_Str 111 (SCons_Str 44 (SCons_Str 32 SNil_Str))))))) (fn_str_append (select (mk_Rec_fetch__Array_Str_Str__fetch q0) q1) (SCons_Str 33 SNil_Str))) (fn_str_append (SCons_Str 72 (SCons_Str 101 (SCons_Str 108 (SCons_Str 108 (SCons_Str 111 (SCons_Str 44 (SCons_Str 32 SNil_Str))))))) (fn_str_append (select (mk_Rec_fetch__Array_Str_Str__fetch q0) q1) (SCons_Str 33 SNil_Str))))))
(assert (forall ((q0 Str)) (= (fn_str_append SNil_Str q0) q0)))
(declare-const b0 Rec_fetch__Array_Str_Str_)
(declare-const b1 Str)
(assert (not (= (fn_str_append (SCons_Str 72 (SCons_Str 101 (SCons_Str 108 (SCons_Str 108 (SCons_Str 111 (SCons_Str 44 (SCons_Str 32 SNil_Str))))))) (fn_str_append (select (mk_Rec_fetch__Array_Str_Str__fetch b0) b1) (SCons_Str 33 SNil_Str))) (fn_str_append (SCons_Str 72 (SCons_Str 101 (SCons_Str 108 (SCons_Str 108 (SCons_Str 111 (SCons_Str 44 (SCons_Str 32 SNil_Str))))))) (fn_str_append (select (mk_Rec_fetch__Array_Str_Str__fetch b0) b1) (SCons_Str 33 SNil_Str))))))
(check-sat)
